solution
0 53 21 73 72 74 22 41 75 56 23 67 39 4 25 55 24 29 34 35 71 9 51 33 3 77 68 80 54 0
0 89 6 94 95 96 37 98 100 91 85 61 16 44 38 14 42 43 15 57 2 87 13 58 40 26 0
0 28 50 1 20 30 10 63 11 49 36 47 46 45 17 84 83 18 52 7 48 19 62 88 31 69 27 0
