solution.txt
0 89 96 95 94 13 58 40 21 73 72 74 22 41 75 23 39 4 25 55 54 24 29 68 80 12 26 0
0 28 76 50 1 70 30 51 9 33 34 35 71 66 20 32 10 62 11 19 49 47 48 7 88 31 69 27 0
0 52 18 60 83 82 46 45 17 84 5 99 59 37 98 85 16 86 38 44 14 43 15 42 57 2 53 0
